\* Problem: Bestun_Likan_first_draft *\

Minimize
 MaxAlag(1): + 5 x(1,1) + x(2,1) + 5 x(3,1) + 5 x(4,1) + 4 x(5,1)
 + 9 x(6,1)

Subject To
 Bannad(1,2): + x(1,2) = -0
 Bannad(1,4): + x(1,4) = -0
 Bannad(2,2): + x(2,2) = -0
 Bannad(2,4): + x(2,4) = -0
 UseAll(1): + x(1,1) + x(1,2) + x(1,3) + x(1,4) = 1
 UseAll(2): + x(2,1) + x(2,2) + x(2,3) + x(2,4) = 1
 UseAll(3): + x(3,1) + x(3,2) + x(3,3) + x(3,4) = 1
 UseAll(4): + x(4,1) + x(4,2) + x(4,3) + x(4,4) = 1
 UseAll(5): + x(5,1) + x(5,2) + x(5,3) + x(5,4) = 1
 UseAll(6): + x(6,1) + x(6,2) + x(6,3) + x(6,4) = 1
 Maxid(1): + 5 x(1,1) + x(2,1) + 5 x(3,1) + 5 x(4,1) + 4 x(5,1)
 + 9 x(6,1) <= 10
 Maxid(2): + 5 x(1,2) + x(2,2) + 5 x(3,2) + 5 x(4,2) + 4 x(5,2)
 + 9 x(6,2) <= 5
 Maxid(3): + 5 x(1,3) + x(2,3) + 5 x(3,3) + 5 x(4,3) + 4 x(5,3)
 + 9 x(6,3) <= 10
 Maxid(4): + 5 x(1,4) + x(2,4) + 5 x(3,4) + 5 x(4,4) + 4 x(5,4)
 + 9 x(6,4) <= 5

Bounds
 0 <= x(1,1) <= 1
 0 <= x(2,1) <= 1
 0 <= x(3,1) <= 1
 0 <= x(4,1) <= 1
 0 <= x(5,1) <= 1
 0 <= x(6,1) <= 1
 0 <= x(1,2) <= 1
 0 <= x(2,2) <= 1
 0 <= x(3,2) <= 1
 0 <= x(4,2) <= 1
 0 <= x(5,2) <= 1
 0 <= x(6,2) <= 1
 0 <= x(1,3) <= 1
 0 <= x(2,3) <= 1
 0 <= x(3,3) <= 1
 0 <= x(4,3) <= 1
 0 <= x(5,3) <= 1
 0 <= x(6,3) <= 1
 0 <= x(1,4) <= 1
 0 <= x(2,4) <= 1
 0 <= x(3,4) <= 1
 0 <= x(4,4) <= 1
 0 <= x(5,4) <= 1
 0 <= x(6,4) <= 1

Generals
 x(1,1)
 x(2,1)
 x(3,1)
 x(4,1)
 x(5,1)
 x(6,1)
 x(1,2)
 x(2,2)
 x(3,2)
 x(4,2)
 x(5,2)
 x(6,2)
 x(1,3)
 x(2,3)
 x(3,3)
 x(4,3)
 x(5,3)
 x(6,3)
 x(1,4)
 x(2,4)
 x(3,4)
 x(4,4)
 x(5,4)
 x(6,4)

End
